NAME 
ROWS
 N  OBJ
 L  R0      
 L  R1      
 E  R2      
 E  R3      
 E  R4      
 E  R5      
 E  R6      
 E  R7      
 E  R8      
 E  R9      
 E  R10     
 E  R11     
 E  R12     
 E  R13     
 E  R14     
 E  R15     
 E  R16     
COLUMNS
    MARKER    'MARKER'                 'INTORG'
    I0(4)     OBJ       -25
    I0(4)     R0        172
    I0(4)     R1        2
    I0(4)     R2        15
    I0(4)     R16       1
    I1(7)     OBJ       -36
    I1(7)     R0        -61
    I1(7)     R1        67
    I1(7)     R4        7
    I1(7)     R5        6
    I1(7)     R6        5
    I1(7)     R7        15
    I1(7)     R16       1
    I2(3)     OBJ       172
    I2(3)     R0        -191
    I2(3)     R1        5
    I2(3)     R16       1
    I3(6)     OBJ       -140
    I3(6)     R0        10
    I3(6)     R1        -22
    I3(6)     R3        8
    I3(6)     R5        2
    I3(6)     R7        6
    I3(6)     R16       1
    I4(8)     OBJ       9
    I4(8)     R0        189
    I4(8)     R1        188
    I4(8)     R2        5
    I4(8)     R3        12
    I4(8)     R4        15
    I4(8)     R6        5
    I4(8)     R7        12
    I4(8)     R16       1
    I5(6)     OBJ       109
    I5(6)     R0        -127
    I5(6)     R1        -180
    I5(6)     R3        11
    I5(6)     R5        5
    I5(6)     R6        11
    I5(6)     R16       1
    MARKER    'MARKER'                 'INTEND'
    C6(11)    OBJ       -8
    C6(11)    R0        9
    C6(11)    R1        7
    C6(11)    R2        -1
    C6(11)    R3        14
    C6(11)    R5        11
    C6(11)    R7        9
    C6(11)    R8        12
    C6(11)    R9        1
    C6(11)    R10       14
    C6(11)    R12       8
    C6(11)    R14       16
    C7(10)    OBJ       -7
    C7(10)    R0        5
    C7(10)    R3        6
    C7(10)    R4        12
    C7(10)    R5        19
    C7(10)    R7        18
    C7(10)    R8        16
    C7(10)    R9        13
    C7(10)    R12       15
    C7(10)    R13       14
    C7(10)    R14       2
    C8(14)    OBJ       1
    C8(14)    R0        1
    C8(14)    R1        8
    C8(14)    R2        19
    C8(14)    R3        1
    C8(14)    R4        5
    C8(14)    R5        18
    C8(14)    R6        2
    C8(14)    R7        17
    C8(14)    R9        19
    C8(14)    R10       14
    C8(14)    R11       14
    C8(14)    R12       3
    C8(14)    R13       11
    C8(14)    R15       19
    C9(8)     OBJ       -1
    C9(8)     R0        6
    C9(8)     R1        8
    C9(8)     R2        -1
    C9(8)     R6        18
    C9(8)     R7        15
    C9(8)     R10       10
    C9(8)     R11       5
    C9(8)     R15       11
    C10(10)   OBJ       -6
    C10(10)   R0        -9
    C10(10)   R1        2
    C10(10)   R4        3
    C10(10)   R5        16
    C10(10)   R6        6
    C10(10)   R7        15
    C10(10)   R9        4
    C10(10)   R10       16
    C10(10)   R11       1
    C10(10)   R12       4
    C11(7)    OBJ       -5
    C11(7)    R0        2
    C11(7)    R1        -2
    C11(7)    R4        15
    C11(7)    R5        19
    C11(7)    R10       16
    C11(7)    R12       4
    C11(7)    R15       15
    C12(9)    OBJ       1
    C12(9)    R0        -2
    C12(9)    R1        -9
    C12(9)    R3        17
    C12(9)    R5        1
    C12(9)    R6        17
    C12(9)    R9        10
    C12(9)    R10       1
    C12(9)    R12       6
    C12(9)    R14       1
    C13(6)    OBJ       -4
    C13(6)    R0        2
    C13(6)    R1        9
    C13(6)    R2        15
    C13(6)    R4        13
    C13(6)    R6        15
    C13(6)    R10       1
    C14(10)   OBJ       7
    C14(10)   R0        -4
    C14(10)   R1        -9
    C14(10)   R2        8
    C14(10)   R5        9
    C14(10)   R7        4
    C14(10)   R9        11
    C14(10)   R10       10
    C14(10)   R11       17
    C14(10)   R12       6
    C14(10)   R15       11
    C15(1)    R2        1
    C16(1)    R3        1
    C17(1)    R4        1
    C18(1)    R5        1
    C19(1)    R6        1
    C20(1)    R7        1
    C21(1)    R8        1
    C22(1)    R9        1
    C23(1)    R10       1
    C24(1)    R11       1
    C25(1)    R12       1
    C26(1)    R13       1
    C27(1)    R14       1
    C28(1)    R15       1
    C29(1)    R16       1
RHS
    RHS1      R0        -2.9319148936170194e+00
    RHS1      R1        1.0586312056737589e+02
    RHS1      R2        65
    RHS1      R3        98
    RHS1      R4        87
    RHS1      R5        66
    RHS1      R6        57
    RHS1      R7        86
    RHS1      R8        89
    RHS1      R9        72
    RHS1      R10       97
    RHS1      R11       81
    RHS1      R12       85
    RHS1      R13       52
    RHS1      R14       69
    RHS1      R15       57
    RHS1      R16       2
BOUNDS
 UP BND1      I0(4)     1
 UP BND1      I1(7)     1
 UP BND1      I2(3)     1
 UP BND1      I3(6)     1
 UP BND1      I4(8)     1
 UP BND1      I5(6)     1
ENDATA
